NAME          SUSPEN
ROWS
 G  N
 G  P
 G  K
 G  S
 G  ZN
 G  CLAY
 G  WATR
 G  DEN
 E  WT
 N  COST
 N  PRICE
COLUMNS
*234567890123456789012345678901234567890123456789012345678901
    WATER     WATR          1.000000   DEN           0.119750   
    WATER     WT            1.000000   COST          0.100000   
    WATER     PRICE         0.150000   SCALE      2000.000000   
    ICLAY     CLAY          1.000000   DEN           0.249350   
    ICLAY     WT            1.000000   COST        100.000000   
    ICLAY     PRICE       125.000000   SCALE      2000.000000   
    I103000   N             0.100000   P             0.300000   
    I103000   CLAY          0.015000   WATR          0.363000   
    I103000   DEN           0.090909   WT            1.000000   
    I103000   COST        120.000000   PRICE       150.000000   
    I103000   SCALE      2000.000000   
    I280000   N             0.280000   WATR          0.302000   
    I280000   DEN           0.093709   WT            1.000000   
    I280000   COST         90.000000   PRICE       112.500000   
    I280000   SCALE      2000.000000   
    I210000   N             0.210000   S             0.240000   
    I210000   DEN           0.152663   WT            1.000000   
    I210000   COST        110.000000   PRICE       137.500000   
    I210000   SCALE      2000.000000   
    I000062   K             0.620000   DEN           0.060457   
    I000062   WT            1.000000   COST         90.000000   
    I000062   PRICE       112.500000   SCALE      2000.000000   
    I100000   N             0.100000   S             0.050000   
    I100000   ZN            0.100000   WATR          0.600000   
    I100000   DEN           0.094690   WT            1.000000   
    I100000   COST        190.000000   PRICE       237.500000   
    I100000   SCALE      2000.000000   
    LASSO     WATR          1.000000   DEN           0.100000   
    LASSO     WT            1.000000   COST          5.625000   
    LASSO     PRICE         6.250000   SCALE         2.500000   
    ATRAZINE  WATR          1.000000   DEN           0.100000   
    ATRAZINE  WT            1.000000   COST          2.000000   
    ATRAZINE  PRICE         2.250000   SCALE         2.330000   
    PRODUCT   CLAY         -0.015000   WT           -1.000000   
    PRODUCT   COST          0.000000   PRICE         0.000000   
    PRODUCT   SCALE         1.000000   
*234567890123456789012345678901234567890123456789012345678901
RHS
RANGES
ENDATA
